p cnf 11 30
-5 4 8 0
-8 -10 9 -3 0
-6 -4 8 11 5 -10 -7 -2 1 0
-4 1 -2 10 -7 -3 6 0
10 -3 -6 -4 0
4 -1 8 10 0
9 10 11 1 -5 3 -6 -8 -7 0
5 3 -4 0
-10 -3 6 -11 -9 -5 1 -7 -4 -8 -2 0
3 -11 4 2 0
-7 10 0
2 7 11 -9 0
4 3 1 -10 -11 6 -9 0
-1 11 -9 0
-3 4 0
6 -10 7 8 0
3 -4 -8 -6 0
-4 2 0
-7 5 9 0
7 -10 1 -11 -9 0
10 9 11 1 4 0
-3 -4 1 -5 -8 -6 7 9 10 0
9 -4 11 10 5 -2 -6 3 1 -7 -8 0
2 -7 0
2 9 1 -7 0
7 3 10 1 6 -2 0
-11 -9 -8 7 -10 1 0
7 1 -11 0
7 5 10 4 3 9 -11 0
6 11 5 0
